SCIP Status        : problem creation / modification
Total Time         :       0.03
  reading          :       0.03
Original Problem   :
  Problem name     : main4.zpl
  Variables        : 2840 (2840 binary, 0 integer, 0 implicit integer, 0 continuous)
  Constraints      : 0 initial, 2910 maximal
  Objective        : minimize, 2840 non-zeros (abs.min = 0.00102, abs.max = 5700)
